p td 40 39
0 1
1 2
1 3
1 4
1 6
1 9
1 12
1 13
1 15
1 21
1 25
1 31
1 33
1 39
2 16
2 18
2 24
2 28
3 5
3 7
3 20
3 26
3 27
4 8
4 32
5 37
6 10
6 11
6 14
6 17
8 29
10 19
12 38
16 23
16 35
17 30
20 34
21 22
34 36
